c uprop, v00.0, 
c reading from data/prog523.c.cnf
c done reading: 0.003101
p cnf 49 161
-26 -33 0
-24 -33 0
24 26 33 0
24 26 -31 0
-24 -26 -31 0
24 -26 31 0
-24 26 31 0
33 -34 0
-19 -34 0
19 -33 34 0
19 -32 -33 0
-19 -32 33 0
19 32 33 0
-19 32 -33 0
-30 34 0
-28 -30 0
28 30 -34 0
-25 28 -34 0
-25 -28 34 0
25 28 34 0
25 -28 -34 0
-22 30 0
-20 -22 0
20 22 -30 0
-18 20 -30 0
-18 -20 30 0
18 20 30 0
18 -20 -30 0
22 -29 0
-29 -36 0
-22 29 36 0
-21 -22 36 0
-21 22 -36 0
21 22 36 0
21 -22 -36 0
29 -37 0
-37 -38 0
-29 37 38 0
-29 38 -39 0
29 -38 -39 0
29 38 39 0
-29 -38 39 0
37 -40 0
-40 -41 0
-37 40 41 0
-37 41 -42 0
37 -41 -42 0
37 41 42 0
-37 -41 42 0
-26 -43 0
-24 -43 0
24 26 43 0
24 26 -44 0
-24 -26 -44 0
24 -26 44 0
-24 26 44 0
43 -45 0
-19 -45 0
19 -43 45 0
19 -43 -46 0
-19 43 -46 0
19 43 46 0
-19 -43 46 0
45 -47 0
-28 -47 0
28 -45 47 0
28 -45 -48 0
-28 45 -48 0
28 45 48 0
-28 -45 48 0
47 -49 0
-20 -49 0
20 -47 49 0
-17 20 -47 0
-17 -20 47 0
17 20 47 0
17 -20 -47 0
-16 49 0
-16 -36 0
16 36 -49 0
-15 36 -49 0
-15 -36 49 0
15 36 49 0
15 -36 -49 0
-14 16 0
-14 -38 0
14 -16 38 0
-13 -16 38 0
-13 16 -38 0
13 16 38 0
13 -16 -38 0
-12 14 0
-12 -41 0
12 -14 41 0
-11 -14 41 0
-11 14 -41 0
11 14 41 0
11 -14 -41 0
-9 10 0
-9 26 0
9 -10 -26 0
-10 26 0
10 -26 0
7 -8 -24 0
7 -8 -9 0
7 -9 -24 0
-7 8 24 0
-7 8 9 0
-7 9 24 0
-7 8 0
-7 24 0
-7 9 0
8 9 24 0
5 -6 -19 0
5 -6 -7 0
5 -7 -19 0
-5 6 19 0
-5 6 7 0
-5 7 19 0
5 -6 0
5 -19 0
5 -7 0
-6 -7 -19 0
3 -4 -28 0
3 -4 -5 0
3 -5 -28 0
-3 4 28 0
-3 4 5 0
-3 5 28 0
3 -4 0
3 -28 0
3 -5 0
-4 -5 -28 0
-1 -20 23 0
-1 -3 23 0
-3 -20 23 0
1 20 -23 0
1 3 -23 0
3 20 -23 0
1 -23 0
20 -23 0
3 -23 0
1 3 20 0
-2 27 -36 0
-2 -23 27 0
-23 27 -36 0
2 -27 36 0
2 23 -27 0
23 -27 36 0
2 -27 0
-27 36 0
23 -27 0
2 23 36 0
-35 38 0
27 -35 0
-27 35 -38 0
27 -38 0
-27 38 0
-35 -41 0
35 -41 0
-35 41 0
